# Solution for model breathing_srl_ilp
# Objective value = 1.0522074538952806e+01
Z_638_0_0 0
Z_638_0_1 0
Z_638_0_2 1
Z_638_0_3 0
Z_517_2_0 1
Z_517_2_1 0
Z_517_2_2 0
Z_517_2_3 0
Z_517_0_0 0
Z_517_0_1 0
Z_517_0_2 1
Z_517_0_3 0
Z_517_1_0 0
Z_517_1_1 1
Z_517_1_2 0
Z_517_1_3 0
Z_362_0_0 0
Z_362_0_1 1
Z_362_0_2 0
Z_362_0_3 0
Z_42_0_0 0
Z_42_0_1 1
Z_42_0_2 0
Z_42_0_3 0
Z_337_0_0 0
Z_337_0_1 0
Z_337_0_2 1
Z_337_0_3 0
Z_624_2_0 0
Z_624_2_1 0
Z_624_2_2 0
Z_624_2_3 0
Z_624_1_0 0
Z_624_1_1 0
Z_624_1_2 0
Z_624_1_3 0
Z_624_5_0 0
Z_624_5_1 0
Z_624_5_2 0
Z_624_5_3 1
Z_624_4_0 0
Z_624_4_1 0
Z_624_4_2 1
Z_624_4_3 0
Z_624_0_0 0
Z_624_0_1 1
Z_624_0_2 0
Z_624_0_3 0
Z_624_6_0 0
Z_624_6_1 0
Z_624_6_2 0
Z_624_6_3 0
Z_624_3_0 1
Z_624_3_1 0
Z_624_3_2 0
Z_624_3_3 0
Z_199_1_0 0
Z_199_1_1 1
Z_199_1_2 0
Z_199_1_3 0
Z_199_0_0 0
Z_199_0_1 0
Z_199_0_2 1
Z_199_0_3 0
Z_199_2_0 0
Z_199_2_1 0
Z_199_2_2 0
Z_199_2_3 1
Z_199_3_0 1
Z_199_3_1 0
Z_199_3_2 0
Z_199_3_3 0
Z_341_1_0 1
Z_341_1_1 0
Z_341_1_2 0
Z_341_1_3 0
Z_341_0_0 0
Z_341_0_1 0
Z_341_0_2 1
Z_341_0_3 0
Z_341_2_0 0
Z_341_2_1 1
Z_341_2_2 0
Z_341_2_3 0
Z_341_3_0 0
Z_341_3_1 0
Z_341_3_2 0
Z_341_3_3 1
Z_10_0_0 0
Z_10_0_1 1
Z_10_0_2 0
Z_10_0_3 0
Z_212_0_0 0
Z_212_0_1 1
Z_212_0_2 0
Z_212_0_3 0
Z_237_0_0 0
Z_237_0_1 1
Z_237_0_2 0
Z_237_0_3 0
